NAME          DCAP_3_3_2_200_SS99
ROWS
 N  OBJ
 L  CON1
 L  CON2
 L  CON3
 L  CON4
 L  CON5
 L  CON6
 L  CON7
 L  CON8
 L  CON9
 L  CON10
 L  CON11
 L  CON12
 E  CON13
 E  CON14
 E  CON15
 E  CON16
 E  CON17
 E  CON18
COLUMNS
    x[1,1]    OBJ       6.180167      CON1      1.000000    
    x[1,1]    CON7      -1.000000     CON8      -1.000000   
    x[1,2]    OBJ       5.039546      CON2      1.000000    
    x[1,2]    CON8      -1.000000   
    x[2,1]    OBJ       6.732585      CON3      1.000000    
    x[2,1]    CON9      -1.000000     CON10     -1.000000   
    x[2,2]    OBJ       7.443064      CON4      1.000000    
    x[2,2]    CON10     -1.000000   
    x[3,1]    OBJ       6.563535      CON5      1.000000    
    x[3,1]    CON11     -1.000000     CON12     -1.000000   
    x[3,2]    OBJ       6.054841      CON6      1.000000    
    x[3,2]    CON12     -1.000000   
    MARKER    'MARKER'                'INTORG'
    u[1,1]    OBJ       48.076654     CON1      -1.000000   
    u[1,2]    OBJ       49.466655     CON2      -1.000000   
    u[2,1]    OBJ       49.996186     CON3      -1.000000   
    u[2,2]    OBJ       32.230043     CON4      -1.000000   
    u[3,1]    OBJ       20.066487     CON5      -1.000000   
    u[3,2]    OBJ       27.484319     CON6      -1.000000   
    y[1,1,1]  OBJ       5.040852      CON7      0.560449    
    y[1,1,1]  CON13     1.000000    
    y[1,1,2]  OBJ       7.978979      CON8      1.111558    
    y[1,1,2]  CON14     1.000000    
    y[1,2,1]  OBJ       7.667643      CON7      0.532414    
    y[1,2,1]  CON15     1.000000    
    y[1,2,2]  OBJ       7.253714      CON8      0.557438    
    y[1,2,2]  CON16     1.000000    
    y[1,3,1]  OBJ       9.347566      CON7      1.113158    
    y[1,3,1]  CON17     1.000000    
    y[1,3,2]  OBJ       8.249311      CON8      1.191214    
    y[1,3,2]  CON18     1.000000    
    y[2,1,1]  OBJ       5.983571      CON9      0.560449    
    y[2,1,1]  CON13     1.000000    
    y[2,1,2]  OBJ       7.666826      CON10     1.111558    
    y[2,1,2]  CON14     1.000000    
    y[2,2,1]  OBJ       6.981074      CON9      0.532414    
    y[2,2,1]  CON15     1.000000    
    y[2,2,2]  OBJ       5.753587      CON10     0.557438    
    y[2,2,2]  CON16     1.000000    
    y[2,3,1]  OBJ       5.059524      CON9      1.113158    
    y[2,3,1]  CON17     1.000000    
    y[2,3,2]  OBJ       6.867880      CON10     1.191214    
    y[2,3,2]  CON18     1.000000    
    y[3,1,1]  OBJ       5.912809      CON11     0.560449    
    y[3,1,1]  CON13     1.000000    
    y[3,1,2]  OBJ       5.416983      CON12     1.111558    
    y[3,1,2]  CON14     1.000000    
    y[3,2,1]  OBJ       6.912838      CON11     0.532414    
    y[3,2,1]  CON15     1.000000    
    y[3,2,2]  OBJ       5.501010      CON12     0.557438    
    y[3,2,2]  CON16     1.000000    
    y[3,3,1]  OBJ       7.908752      CON11     1.113158    
    y[3,3,1]  CON17     1.000000    
    y[3,3,2]  OBJ       9.538290      CON12     1.191214    
    y[3,3,2]  CON18     1.000000    
    z[1,1]    OBJ       641.789874    CON13     1.000000    
    z[1,2]    OBJ       533.674430    CON14     1.000000    
    z[2,1]    OBJ       696.983103    CON15     1.000000    
    z[2,2]    OBJ       642.044654    CON16     1.000000    
    z[3,1]    OBJ       602.986066    CON17     1.000000    
    z[3,2]    OBJ       532.025159    CON18     1.000000    
    MARKER    'MARKER'                 'INTEND'
RHS
    RHS       CON1      -0.000000     CON2      -0.000000   
    RHS       CON3      -0.000000     CON4      -0.000000   
    RHS       CON5      -0.000000     CON6      -0.000000   
    RHS       CON7      -0.000000     CON8      -0.000000   
    RHS       CON9      -0.000000     CON10     -0.000000   
    RHS       CON11     -0.000000     CON12     -0.000000   
    RHS       CON13     1.000000      CON14     1.000000    
    RHS       CON15     1.000000      CON16     1.000000    
    RHS       CON17     1.000000      CON18     1.000000    
BOUNDS
 BV BOUND     u[1,1]  
 BV BOUND     u[1,2]  
 BV BOUND     u[2,1]  
 BV BOUND     u[2,2]  
 BV BOUND     u[3,1]  
 BV BOUND     u[3,2]  
 BV BOUND     y[1,1,1]
 BV BOUND     y[1,1,2]
 BV BOUND     y[1,2,1]
 BV BOUND     y[1,2,2]
 BV BOUND     y[1,3,1]
 BV BOUND     y[1,3,2]
 BV BOUND     y[2,1,1]
 BV BOUND     y[2,1,2]
 BV BOUND     y[2,2,1]
 BV BOUND     y[2,2,2]
 BV BOUND     y[2,3,1]
 BV BOUND     y[2,3,2]
 BV BOUND     y[3,1,1]
 BV BOUND     y[3,1,2]
 BV BOUND     y[3,2,1]
 BV BOUND     y[3,2,2]
 BV BOUND     y[3,3,1]
 BV BOUND     y[3,3,2]
 BV BOUND     z[1,1]  
 BV BOUND     z[1,2]  
 BV BOUND     z[2,1]  
 BV BOUND     z[2,2]  
 BV BOUND     z[3,1]  
 BV BOUND     z[3,2]  
ENDATA
